Set parameter TSPort to value 51199
Set parameter TokenServer to value "open-license1.lanl.gov"
Set parameter TimeLimit to value 2048
Set parameter Threads to value 1
Gurobi Optimizer version 10.0.3 build v10.0.3rc0 (linux64)

CPU model: Intel(R) Xeon(R) CPU E5-2695 v4 @ 2.10GHz, instruction set [SSE2|AVX|AVX2]
Thread count: 36 physical cores, 72 logical processors, using up to 1 threads

Optimize a model with 0 rows, 1173 columns and 0 nonzeros
Model fingerprint: 0x4e71d82a
Model has 5176 quadratic objective terms
Variable types: 0 continuous, 1173 integer (1173 binary)
Coefficient statistics:
  Matrix range     [0e+00, 0e+00]
  Objective range  [2e+00, 3e+01]
  QObjective range [8e+00, 8e+00]
  Bounds range     [1e+00, 1e+00]
  RHS range        [0e+00, 0e+00]
Found heuristic solution: objective 0.0000000
Found heuristic solution: objective -1982.000000
Found heuristic solution: objective -7044.000000
Found heuristic solution: objective -7056.000000
Presolve time: 0.30s
Presolved: 5176 rows, 6349 columns, 15528 nonzeros
Variable types: 0 continuous, 6349 integer (6349 binary)

Root relaxation: objective -9.763000e+03, 1630 iterations, 0.03 seconds (0.01 work units)

    Nodes    |    Current Node    |     Objective Bounds      |     Work
 Expl Unexpl |  Obj  Depth IntInf | Incumbent    BestBd   Gap | It/Node Time

     0     0 -9763.0000    0 1173 -7056.0000 -9763.0000  38.4%     -    0s
     0     0 -8959.0000    0 1578 -7056.0000 -8959.0000  27.0%     -    0s
     0     0 -8953.0000    0 1581 -7056.0000 -8953.0000  26.9%     -    0s
     0     0 -8771.0000    0 1700 -7056.0000 -8771.0000  24.3%     -    1s
     0     0 -8771.0000    0 1700 -7056.0000 -8771.0000  24.3%     -    1s
     0     2 -8771.0000    0 1691 -7056.0000 -8771.0000  24.3%     -    2s
   241   243 -7890.0000  121 2246 -7056.0000 -8760.0000  24.1%   113    5s
   636   605 -7625.0000  166 1649 -7056.0000 -8760.0000  24.1%  75.8   10s
   645   611 -7083.2000  301 2550 -7056.0000 -8211.2132  16.4%  74.7   16s
   649   614 -8183.4522   42 2764 -7056.0000 -8183.4522  16.0%  74.2   20s
   657   619 -7818.0000  135 3129 -7056.0000 -8061.7433  14.3%  73.3   32s
   658   620 -7763.5000  144 3283 -7056.0000 -8040.3655  14.0%  73.2   39s
   659   620 -7076.6000  304 3427 -7056.0000 -8034.5407  13.9%  73.1   41s
   668   626 -7925.2783   72 3769 -7056.0000 -7925.2783  12.3%  72.1   63s
   669   627 -7905.3504   18 3973 -7056.0000 -7905.3504  12.0%  72.0   71s
   670   628 -7218.0000  252 4078 -7056.0000 -7900.5789  12.0%  71.9   75s
   678   633 -7661.0000  159 4253 -7056.0000 -7898.1903  11.9%  71.1   80s
   679   634 -7833.0154  110 4470 -7056.0000 -7833.0154  11.0%  71.0  101s
   680   634 -7305.0000  231 4585 -7056.0000 -7819.7404  10.8%  70.9  111s
   681   635 -7672.5000  157 4639 -7056.0000 -7817.1165  10.8%  70.8  115s
   688   640 -7307.0000  230 4723 -7056.0000 -7815.9060  10.8%  70.0  120s
   689   640 -7770.2807  128 5016 -7056.0000 -7770.2807  10.1%  69.9  143s
   690   641 -7761.2280   62 5006 -7056.0000 -7761.2280  10.0%  69.8  153s
   691   642 -7758.8591   16 5049 -7056.0000 -7758.8591  10.0%  69.7  157s
   693   643 -7334.0000  225 5124 -7056.0000 -7758.1098  10.0%  69.5  160s
   699   647 -7740.7390  135 5119 -7056.0000 -7740.7390  9.70%  68.9  176s
   700   648 -7736.7350   93 5157 -7056.0000 -7736.7350  9.65%  68.8  184s
   701   648 -7450.0000  202 5197 -7056.0000 -7735.9873  9.64%  68.7  186s
   708   653 -7220.0000  250 5255 -7056.0000 -7735.7175  9.63%  68.1  190s
   709   654 -7658.0000  160 5183 -7056.0000 -7716.8546  9.37%  68.0  208s
   710   654 -7712.5419   74 5230 -7056.0000 -7712.5419  9.30%  67.9  217s
   712   656 -7219.0000  251 5275 -7056.0000 -7711.6914  9.29%  67.7  220s
   717   659 -7251.0000  244 5280 -7056.0000 -7699.8641  9.13%  67.2  235s
   718   660 -7697.1834  130 5319 -7056.0000 -7697.1834  9.09%  67.1  242s
   720   661 -7679.5000  156 5350 -7056.0000 -7696.8050  9.08%  66.9  245s
   725   664 -7155.5000  272 5277 -7056.0000 -7685.8237  8.93%  66.5  262s
   726   665 -7683.4015  120 5339 -7056.0000 -7683.4015  8.89%  66.4  268s
   727   666 -7212.0000  254 5343 -7056.0000 -7682.8669  8.88%  66.3  271s
   733   670 -7671.9333   90 5361 -7056.0000 -7671.9333  8.73%  65.7  287s
   734   670 -7661.0000  159 5404 -7056.0000 -7669.6366  8.70%  65.7  294s
   735   671 -7669.1884  151 5424 -7056.0000 -7669.1884  8.69%  65.6  297s
   741   675 -7661.2714   93 5394 -7056.0000 -7661.2714  8.58%  65.0  311s
   742   676 -7659.4833  155 5461 -7056.0000 -7659.4833  8.55%  64.9  317s
   744   677 -7183.0000  263 5473 -7056.0000 -7659.2062  8.55%  64.8  320s
   748   680 -7631.0000  165 5388 -7056.0000 -7651.2424  8.44%  64.4  332s
   749   680 -7649.0461   42 5451 -7056.0000 -7649.0461  8.40%  64.3  338s
   750   681 -7557.0000  182 5480 -7056.0000 -7648.7329  8.40%  64.3  340s
   755   684 -7450.0000  202 5442 -7056.0000 -7643.6067  8.33%  63.8  353s
   756   685 -7200.0000  258 5475 -7056.0000 -7642.5048  8.31%  63.7  358s
   758   686 -7642.2590  144 5509 -7056.0000 -7642.2590  8.31%  63.6  360s
   763   690 -7638.8112   21 5466 -7056.0000 -7638.8112  8.26%  63.2  368s
   764   690 -7151.5000  274 5509 -7056.0000 -7638.0463  8.25%  63.1  371s
   769   694 -7634.3231   18 5508 -7056.0000 -7634.3231  8.20%  62.7  381s
   770   694 -7218.0000  252 5548 -7056.0000 -7633.4015  8.18%  62.6  386s
   776   698 -7186.0000  262 5516 -7056.0000 -7630.1973  8.14%  62.1  395s
   777   699 -7629.1393  107 5532 -7056.0000 -7629.1393  8.12%  62.0  401s
   783   703 -7624.6561   96 5561 -7056.0000 -7624.6561  8.06%  61.5  414s
   784   704 -7103.0000  292 5614 -7056.0000 -7623.6875  8.05%  61.5  417s
   787   706 -7330.0000  226 5602 -7056.0000 -7623.4547  8.04%  61.2  420s
   789   707 -7621.3394  128 5565 -7056.0000 -7621.3394  8.01%  61.1  427s
   790   708 -7620.8625   62 5580 -7056.0000 -7620.8625  8.01%  61.0  430s
   796   712 -7188.0000  262 5550 -7056.0000 -7618.7506  7.98%  60.5  438s
   797   712 -7127.0000  282 5592 -7056.0000 -7618.2685  7.97%  60.5  441s
   802   716 -7295.0000  233 5608 -7056.0000 -7616.3902  7.94%  60.1  449s
   803   716 -7615.8514   14 5637 -7056.0000 -7615.8514  7.93%  60.0  452s
   809   720 -7615.4953  160 5652 -7056.0000 -7615.4953  7.93%  59.6  455s
   819   729 -7405.0000  213 2486 -7056.0000 -7615.4899  7.93%   835  461s
   820   729 -7615.4899  156 4579 -7056.0000 -7615.4899  7.93%   834  493s
   821   730 -7615.4899  100 5365 -7056.0000 -7615.4899  7.93%   833  529s
   822   731 -7488.5000  195 5463 -7056.0000 -7615.4899  7.93%   832  550s
   823   731 -7615.4899   23 5538 -7056.0000 -7615.4899  7.93%   831  559s
   824   732 -7615.4899   29 5592 -7056.0000 -7615.4899  7.93%   830  563s
   825   733 -7155.5000  272 5603 -7056.0000 -7615.4899  7.93%   829  565s
   830   736 -7608.4952  132 5568 -7056.0000 -7608.4952  7.83%   824  582s
   831   737 -7607.5112   51 5608 -7056.0000 -7607.5112  7.82%   823  586s
   836   740 -7600.9959  166 5629 -7056.0000 -7600.9959  7.72%   818  604s
   837   741 -7161.5000  270 5658 -7056.0000 -7600.1547  7.71%   817  609s
   838   741 -7599.9833   72 5670 -7056.0000 -7599.9833  7.71%   816  610s
   842   744 -7596.2547  155 5640 -7056.0000 -7596.2547  7.66%   812  623s
   843   745 -7595.7239   75 5655 -7056.0000 -7595.7239  7.65%   811  627s
   848   748 -7595.5702  165 5683 -7056.0000 -7595.5702  7.65%   807  631s
   849   749 -7591.3229   42 5640 -7056.0000 -7591.3229  7.59%   806  643s
   850   749 -7557.0000  182 5677 -7056.0000 -7590.2588  7.57%   805  648s
   851   750 -7590.0710  124 5691 -7056.0000 -7590.0710  7.57%   804  650s
   855   753 -7450.0000  202 5702 -7056.0000 -7586.9288  7.52%   800  662s
   856   753 -7200.0000  258 5711 -7056.0000 -7586.3575  7.52%   799  666s
   860   756 -7428.0000  207 5737 -7056.0000 -7586.2015  7.51%   795  670s
   861   757 -7583.5824   42 5707 -7056.0000 -7583.5824  7.48%   794  679s
   862   757 -7582.9747   37 5726 -7056.0000 -7582.9747  7.47%   793  683s
   865   759 -7582.8799  173 5743 -7056.0000 -7582.8799  7.47%   791  685s
   868   761 -7581.0303   72 5722 -7056.0000 -7581.0303  7.44%   788  694s
   869   762 -7580.3856   18 5739 -7056.0000 -7580.3856  7.43%   787  698s
   871   763 -7474.0000  198 5771 -7056.0000 -7580.2551  7.43%   785  700s
   875   766 -7161.5000  270 5744 -7056.0000 -7578.2950  7.40%   782  710s
   878   768 -7577.7591  159 5800 -7056.0000 -7577.7591  7.39%   779  715s
   881   770 -7575.6026  157 5766 -7056.0000 -7575.6026  7.36%   776  726s
   883   771 -7575.1054   96 5805 -7056.0000 -7575.1054  7.36%   775  730s
   886   773 -7570.5000  180 5801 -7056.0000 -7573.5936  7.34%   772  739s
   887   774 -7330.0000  226 5804 -7056.0000 -7573.0693  7.33%   771  743s
   888   775 -7307.0000  230 5818 -7056.0000 -7572.9548  7.33%   770  745s
   892   777 -7571.9108  168 5794 -7056.0000 -7571.9108  7.31%   767  753s
   893   778 -7334.0000  225 5817 -7056.0000 -7571.6314  7.31%   766  756s
   898   781 -7220.0000  250 5847 -7056.0000 -7571.5166  7.31%   762  760s
   900   783 -7570.3792   93 5832 -7056.0000 -7570.3792  7.29%   760  767s
   904   785 -7570.3249  131 5855 -7056.0000 -7570.3249  7.29%   757  770s
   905   786 -7569.0810  165 5815 -7056.0000 -7569.0810  7.27%   756  776s
   907   787 -7568.7439   78 5845 -7056.0000 -7568.7439  7.27%   754  780s
   911   790 -7206.0000  257 5831 -7056.0000 -7567.4856  7.25%   751  788s
   912   791 -7219.0000  251 5852 -7056.0000 -7567.1557  7.24%   750  790s
   918   795 -7565.4380  130 5826 -7056.0000 -7565.4380  7.22%   745  800s
   923   798 -7565.0590   23 5858 -7056.0000 -7565.0590  7.21%   741  805s
   924   799 -7563.9860   29 5827 -7056.0000 -7563.9860  7.20%   740  811s
   928   801 -7563.6665    8 5863 -7056.0000 -7563.6665  7.19%   737  815s
   930   803 -7562.8204  132 5844 -7056.0000 -7562.8204  7.18%   735  822s
   935   806 -7562.7389  151 5872 -7056.0000 -7562.7389  7.18%   731  825s
   937   807 -7161.5000  270 5842 -7056.0000 -7561.8907  7.17%   730  831s
   942   811 -7561.0930  155 5833 -7056.0000 -7561.0930  7.16%   726  838s
   943   811 -7560.9638   75 5847 -7056.0000 -7560.9638  7.16%   725  840s
   948   815 -7559.8614  165 5841 -7056.0000 -7559.8614  7.14%   721  848s
   949   815 -7559.5888   42 5857 -7056.0000 -7559.5888  7.14%   721  851s
   953   818 -7558.7297   86 5863 -7056.0000 -7558.7297  7.12%   718  859s
   954   819 -7558.5352    9 5880 -7056.0000 -7558.5352  7.12%   717  861s
   959   822 -7076.6000  304 5860 -7056.0000 -7557.6783  7.11%   713  868s
   960   823 -7428.0000  207 5870 -7056.0000 -7557.4936  7.11%   712  870s
   965   826 -7556.9204  173 5865 -7056.0000 -7556.9204  7.10%   709  876s
   968   828 -7556.6888   72 5895 -7056.0000 -7556.6888  7.10%   707  880s
H  970   784                    -7062.000000 -7555.9712  6.99%   705  886s
   976   788 -7186.0000  262 5897 -7062.0000 -7555.7605  6.99%   701  890s
   980   791 -7305.0000  231 5908 -7062.0000 -7555.3595  6.99%   698  895s
   983   793 -7554.7154   96 5898 -7062.0000 -7554.7154  6.98%   696  901s
   988   796 -7307.0000  230 5862 -7062.0000 -7554.0223  6.97%   692  908s
   989   797 -7553.8585  128 5882 -7062.0000 -7553.8585  6.96%   692  910s
   994   800 -7553.2577  163 5854 -7062.0000 -7553.2577  6.96%   688  917s
   995   801 -7442.0000  204 5884 -7062.0000 -7553.0576  6.95%   687  920s
   999   804 -7552.4639  135 5895 -7062.0000 -7552.4639  6.95%   685  926s
  1003   806 -7552.3434   14 5916 -7062.0000 -7552.3434  6.94%   682  930s
  1008   810 -7220.0000  250 5916 -7062.0000 -7551.9534  6.94%   679  936s
  1010   811 -7551.4788   74 5905 -7062.0000 -7551.4788  6.93%   677  941s
  1014   814 -7551.1264   37 5908 -7062.0000 -7551.1264  6.93%   675  946s
  1018   816 -7550.9784  130 5924 -7062.0000 -7550.9784  6.92%   672  950s
  1023   820 -7550.7110   23 5921 -7062.0000 -7550.7110  6.92%   669  955s
  1028   823 -7550.4668    8 5934 -7062.0000 -7550.4668  6.92%   665  960s
  1030   824 -7549.9906  132 5920 -7062.0000 -7549.9906  6.91%   664  965s
  1035   828 -7549.6928  151 5937 -7062.0000 -7549.6928  6.91%   661  970s
  1039   830 -7068.5000  306 5917 -7062.0000 -7549.2236  6.90%   658  975s
  1044   834 -7183.0000  263 5951 -7062.0000 -7549.0249  6.90%   655  980s
  1046   835 -7548.4377  132 5933 -7062.0000 -7548.4377  6.89%   654  985s
  1051   838 -7547.9667  124 5925 -7062.0000 -7547.9667  6.88%   651  991s
  1055   841 -7450.0000  202 5943 -7062.0000 -7547.8331  6.88%   648  995s
  1056   842 -7200.0000  258 5893 -7062.0000 -7547.0472  6.87%   648 1001s
  1058   843 -7546.6460  144 5915 -7062.0000 -7546.6460  6.86%   646 1005s
  1062   846 -7546.3270   37 5909 -7062.0000 -7546.3270  6.86%   644 1010s
  1067   849 -7218.0000  252 5906 -7062.0000 -7546.1140  6.86%   641 1015s
  1071   852 -7474.0000  198 5913 -7062.0000 -7545.7619  6.85%   639 1020s
  1076   855 -7186.0000  262 5933 -7062.0000 -7545.5904  6.85%   636 1025s
  1081   858 -7545.3511  157 5938 -7062.0000 -7545.3511  6.84%   633 1030s
  1086   862 -7545.0342  180 5942 -7062.0000 -7545.0342  6.84%   630 1036s
  1088   863 -7307.0000  230 5930 -7062.0000 -7544.6093  6.83%   629 1040s
  1092   866 -7544.1873  168 5914 -7062.0000 -7544.1873  6.83%   626 1045s
  1096   868 -7188.0000  262 5935 -7062.0000 -7543.8973  6.82%   624 1050s
  1099   870 -7543.4563  135 5946 -7062.0000 -7543.4563  6.82%   622 1055s
  1105   874 -7543.1855  165 5930 -7062.0000 -7543.1855  6.81%   619 1060s
  1109   877 -7542.8466  160 5931 -7062.0000 -7542.8466  6.81%   617 1065s
  1114   880 -7542.5388   37 5939 -7062.0000 -7542.5388  6.80%   614 1071s
  1119   884 -7405.0000  213 5923 -7062.0000 -7541.9729  6.80%   611 1078s
  1120   884 -7541.8078  156 5935 -7062.0000 -7541.8078  6.79%   611 1080s
  1124   887 -7541.4494   29 5935 -7062.0000 -7541.4494  6.79%   608 1085s
  1130   891 -7541.0079  132 5936 -7062.0000 -7541.0079  6.78%   605 1093s
  1132   892 -7425.0000  208 5960 -7062.0000 -7540.8809  6.78%   604 1095s
  1136   895 -7540.5871  166 5953 -7062.0000 -7540.5871  6.78%   602 1100s
  1140   898 -7540.2566   42 5929 -7062.0000 -7540.2566  6.77%   600 1105s
  1145   901 -7083.2000  301 5944 -7062.0000 -7539.8541  6.77%   597 1111s
  1150   904 -7539.6966  182 5955 -7062.0000 -7539.6966  6.76%   595 1115s
H 1150   854                    -7068.000000 -7539.5618  6.67%   595 1117s
  1155   858 -7450.0000  202 5947 -7068.0000 -7539.3538  6.67%   592 1121s
  1159   860 -7076.6000  304 5956 -7068.0000 -7539.2781  6.67%   590 1125s
  1163   863 -7538.9432   21 5961 -7068.0000 -7538.9432  6.66%   588 1130s
  1167   866 -7218.0000  252 5952 -7068.0000 -7538.5113  6.66%   586 1136s
  1171   868 -7474.0000  198 5948 -7068.0000 -7538.3427  6.65%   584 1141s
  1176   872 -7186.0000  262 5961 -7068.0000 -7538.2693  6.65%   582 1145s
  1180   874 -7305.0000  231 5968 -7068.0000 -7538.0783  6.65%   580 1150s
  1186   878 -7537.8790  180 5970 -7068.0000 -7537.8790  6.65%   577 1155s
  1189   880 -7537.6077  128 5946 -7068.0000 -7537.6077  6.64%   575 1160s
  1194   884 -7537.4751  163 5967 -7068.0000 -7537.4751  6.64%   573 1165s
  1199   887 -7537.4048  135 5977 -7068.0000 -7537.4048  6.64%   570 1170s
  1207   894 -7537.3726   78 2324 -7068.0000 -7537.3726  6.64%  1274 1175s
  1208   894 -7220.0000  250 4549 -7068.0000 -7537.3726  6.64%  1273 1209s
  1209   895 -7537.3726  160 5598 -7068.0000 -7537.3726  6.64%  1271 1269s
  1210   896 -7537.3726   74 5743 -7068.0000 -7537.3726  6.64%  1270 1303s
  1211   896 -7206.0000  257 5878 -7068.0000 -7537.3726  6.64%  1269 1320s
  1212   897 -7219.0000  251 5875 -7068.0000 -7537.3726  6.64%  1268 1328s
  1213   898 -7316.0000  228 5912 -7068.0000 -7537.3726  6.64%  1267 1331s
  1219   902 -7405.0000  213 5945 -7068.0000 -7537.3596  6.64%  1261 1336s
  1223   904 -7537.1066   23 5936 -7068.0000 -7537.1066  6.64%  1257 1341s
  1227   907 -7212.0000  254 5942 -7068.0000 -7536.9827  6.64%  1253 1345s
  1233   911 -7536.8979   90 5953 -7068.0000 -7536.8979  6.63%  1247 1350s
  1237   914 -7161.5000  270 5938 -7068.0000 -7536.5500  6.63%  1243 1355s
  1240   916 -7536.2103   42 5930 -7068.0000 -7536.2103  6.62%  1240 1360s
  1247   920 -7536.1186  170 5952 -7068.0000 -7536.1186  6.62%  1233 1365s
  1252   924 -7535.8244    9 5935 -7068.0000 -7535.8244  6.62%  1228 1371s
  1257   927 -7535.4646  135 5927 -7068.0000 -7535.4646  6.61%  1223 1377s
  1260   929 -7428.0000  207 5949 -7068.0000 -7535.3802  6.61%  1220 1380s
  1265   932 -7534.9398  173 5921 -7068.0000 -7534.9398  6.61%  1215 1386s
  1270   936 -7218.0000  252 5931 -7068.0000 -7534.6668  6.60%  1210 1391s
  1274   938 -7534.4560   70 5926 -7068.0000 -7534.4560  6.60%  1207 1396s
  1279   942 -7534.1613  110 5939 -7068.0000 -7534.1613  6.60%  1202 1400s
  1287   947 -7330.0000  226 5921 -7068.0000 -7533.6543  6.59%  1194 1408s
  1291   950 -7533.5628   16 5934 -7068.0000 -7533.5628  6.59%  1191 1410s
  1296   953 -7188.0000  262 5944 -7068.0000 -7533.2895  6.58%  1186 1415s
  1302   957 -7295.0000  233 5943 -7068.0000 -7533.0721  6.58%  1181 1420s
  1309   962 -7532.8654  160 5950 -7068.0000 -7532.8654  6.58%  1174 1425s
  1316   966 -7192.0000  260 5945 -7068.0000 -7532.6192  6.57%  1168 1430s
  1322   970 -7488.5000  195 5955 -7068.0000 -7532.3792  6.57%  1163 1435s
  1327   974 -7212.0000  254 5939 -7068.0000 -7531.7919  6.56%  1158 1442s
  1332   977 -7425.0000  208 5931 -7068.0000 -7531.5445  6.56%  1154 1447s
  1336   980 -7531.3425  166 5934 -7068.0000 -7531.3425  6.56%  1151 1450s
  1342   984 -7531.1701  155 5945 -7068.0000 -7531.1701  6.55%  1145 1455s
  1349   988 -7530.9958   42 5949 -7068.0000 -7530.9958  6.55%  1140 1460s
  1356   993 -7200.0000  258 5932 -7068.0000 -7530.8423  6.55%  1134 1465s
  1363   998 -7530.7100   21 5959 -7068.0000 -7530.7100  6.55%  1128 1470s
  1371  1003 -7474.0000  198 5916 -7068.0000 -7530.5612  6.54%  1121 1476s
  1372  1004 -7530.5612  159 5916 -7068.0000 -7530.5612  6.54%  1120 1639s
  1373  1006 -7528.9934   28 5865 -7068.0000 -7530.4215  6.54%  1389 1647s
  1374  1007 -7527.0705   28 5878 -7068.0000 -7528.9933  6.52%  1394 1654s
  1375  1008 -7527.9951   29 5832 -7068.0000 -7528.9933  6.52%  1398 1660s
  1376  1008 -7525.3763   29 5821 -7068.0000 -7527.9251  6.51%  1405 1670s
  1377  1009 -7525.8287   30 5795 -7068.0000 -7527.9246  6.51%  1412 1679s
  1378  1010 -7525.2194   30 5809 -7068.0000 -7527.0705  6.50%  1418 1687s
  1379  1010 -7524.6119   31 5766 -7068.0000 -7527.0705  6.50%  1422 1693s
  1380  1011 -7523.7223   31 5750 -7068.0000 -7527.0705  6.50%  1428 1701s
  1381  1012 -7522.2457   32 5730 -7068.0000 -7527.0705  6.50%  1434 1709s
  1382  1012 -7521.9662   32 5720 -7068.0000 -7527.0705  6.50%  1440 1716s
  1383  1013 -7519.1436   33 5693 -7068.0000 -7527.0705  6.50%  1441 1720s
  1385  1014 -7518.4161   34 5696 -7068.0000 -7527.0705  6.50%  1443 1726s
  1386  1015 -7515.9668   34 5679 -7068.0000 -7527.0705  6.50%  1449 1735s
  1388  1016 -7515.8612   35 5640 -7068.0000 -7527.0705  6.50%  1452 1742s
  1389  1017 -7515.7000   36 5642 -7068.0000 -7527.0705  6.50%  1455 1747s
  1390  1018 -7512.2931   36 5654 -7068.0000 -7527.0705  6.50%  1456 1750s
  1392  1019 -7513.0728   37 5604 -7068.0000 -7527.0705  6.50%  1460 1757s
  1393  1020 -7512.4075   38 5602 -7068.0000 -7527.0705  6.50%  1461 1760s
  1394  1020 -7511.6415   38 5578 -7068.0000 -7527.0705  6.50%  1465 1767s
  1395  1021 -7510.7255   39 5597 -7068.0000 -7527.0705  6.50%  1467 1771s
  1396  1022 -7509.8201   39 5570 -7068.0000 -7527.0705  6.50%  1469 1775s
  1397  1022 -7508.5772   40 5574 -7068.0000 -7527.0705  6.50%  1472 1781s
  1399  1024 -7507.3140   41 5555 -7068.0000 -7527.0705  6.50%  1474 1787s
  1400  1024 -7506.7115   41 5527 -7068.0000 -7527.0705  6.50%  1477 1792s
  1401  1025 -7504.2666   42 5509 -7068.0000 -7527.0705  6.50%  1483 1800s
  1403  1026 -7499.6415   43 5502 -7068.0000 -7527.0705  6.50%  1484 1805s
  1405  1028 -7499.1419   44 5471 -7068.0000 -7527.0705  6.50%  1490 1815s
  1407  1029 -7497.6881   45 5454 -7068.0000 -7527.0705  6.50%  1492 1821s
  1408  1030 -7498.9876   45 5459 -7068.0000 -7527.0705  6.50%  1496 1826s
  1409  1030 -7497.2312   46 5457 -7068.0000 -7527.0705  6.50%  1500 1832s
  1410  1031 -7497.2504   46 5441 -7068.0000 -7527.0705  6.50%  1502 1836s
  1412  1032 -7494.5248   47 5407 -7068.0000 -7527.0705  6.50%  1507 1844s
  1413  1033 -7492.5335   48 5397 -7068.0000 -7527.0705  6.50%  1508 1846s
  1415  1034 -7488.9373   49 5393 -7068.0000 -7527.0705  6.50%  1513 1856s
  1417  1036 -7488.4483   50 5373 -7068.0000 -7527.0705  6.50%  1516 1862s
  1419  1037 -7486.9795   51 5387 -7068.0000 -7527.0705  6.50%  1518 1868s
  1420  1038 -7486.0655   51 5383 -7068.0000 -7527.0705  6.50%  1519 1870s
  1421  1038 -7483.3565   52 5359 -7068.0000 -7527.0705  6.50%  1523 1876s
  1423  1040 -7481.3354   53 5339 -7068.0000 -7527.0705  6.50%  1524 1880s
  1424  1040 -7480.5696   53 5343 -7068.0000 -7527.0705  6.50%  1527 1885s
  1426  1042 -7478.7626   54 5328 -7068.0000 -7527.0705  6.50%  1531 1892s
  1428  1043 -7476.8540   55 5308 -7068.0000 -7527.0705  6.50%  1533 1897s
  1430  1044 -7474.8836   56 5294 -7068.0000 -7527.0705  6.50%  1536 1903s
  1431  1045 -7474.6386   57 5262 -7068.0000 -7527.0705  6.50%  1536 1905s
  1433  1046 -7472.8694   58 5247 -7068.0000 -7527.0705  6.50%  1538 1910s
  1434  1047 -7469.5281   58 5256 -7068.0000 -7527.0705  6.50%  1543 1916s
  1436  1048 -7468.0281   59 5227 -7068.0000 -7527.0705  6.50%  1546 1921s
  1438  1050 -7467.2814   60 5219 -7068.0000 -7527.0705  6.50%  1549 1927s
  1440  1051 -7466.0357   61 5228 -7068.0000 -7527.0705  6.50%  1551 1932s
  1442  1052 -7465.9637   62 5198 -7068.0000 -7527.0705  6.50%  1555 1938s
  1443  1053 -7466.1994   63 5191 -7068.0000 -7527.0705  6.50%  1556 1940s
  1444  1054 -7463.0764   63 5197 -7068.0000 -7527.0705  6.50%  1559 1945s
  1446  1055 -7463.0419   64 5175 -7068.0000 -7527.0705  6.50%  1564 1952s
  1448  1056 -7459.6780   65 5158 -7068.0000 -7527.0705  6.50%  1565 1955s
  1449  1057 -7458.1377   66 5143 -7068.0000 -7527.0705  6.50%  1568 1960s
  1452  1059 -7455.1093   67 5121 -7068.0000 -7527.0705  6.50%  1573 1968s
H 1453  1005                    -7070.000000 -7527.0705  6.46%  1572 1971s
  1456  1009 -7450.2184   69 5093 -7070.0000 -7527.0705  6.46%  1574 1975s
  1458  1010 -7447.5809   70 5061 -7070.0000 -7527.0705  6.46%  1576 1980s
  1462  1013 -7446.2875   72 5037 -7070.0000 -7527.0705  6.46%  1576 1985s
  1464  1014 -7441.9136   73 5051 -7070.0000 -7527.0705  6.46%  1579 1990s
  1466  1015 -7440.2841   74 5003 -7070.0000 -7527.0705  6.46%  1584 1997s
  1468  1017 -7437.1263   75 4958 -7070.0000 -7527.0705  6.46%  1584 2000s
  1471  1019 -7432.2963   77 4936 -7070.0000 -7527.0705  6.46%  1586 2005s
  1473  1020 -7427.4847   78 4934 -7070.0000 -7527.0705  6.46%  1589 2011s
  1476  1022 -7426.5264   79 4950 -7070.0000 -7527.0705  6.46%  1591 2016s
  1478  1023 -7424.1970   80 4923 -7070.0000 -7527.0705  6.46%  1592 2020s
  1482  1026 -7417.4202   82 4892 -7070.0000 -7527.0705  6.46%  1592 2025s
  1485  1028 -7413.9272   84 4865 -7070.0000 -7527.0705  6.46%  1594 2030s
  1489  1031 -7410.9403   86 4820 -7070.0000 -7527.0705  6.46%  1597 2037s
  1491  1032 -7408.7659   87 4827 -7070.0000 -7527.0705  6.46%  1598 2040s
  1493  1033 -7405.4792   88 4822 -7070.0000 -7527.0705  6.46%  1600 2045s

Cutting planes:
  Gomory: 31
  MIR: 197
  Flow cover: 2397
  Zero half: 685
  Mod-K: 10
  RLT: 249
  BQP: 339

Explored 1495 nodes (2404043 simplex iterations) in 2048.00 seconds (2597.89 work units)
Thread count was 1 (of 72 available processors)

Solution count 7: -7070 -7068 -7062 ... 0

Time limit reached
Best objective -7.070000000000e+03, best bound -7.526000000000e+03, gap 6.4498%

User-callback calls 54011, time in user-callback 0.24 sec

BQP_SOLUTION, 1173, 5176, -2483.000000, 2048.000987, 1, 1, -1, 1, 1, -1, 1, 1, -1, 1, -1, -1, -1, 1, 1, -1, 1, -1, -1, -1, 1, 1, 1, -1, -1, -1, -1, -1, 1, -1, 1, -1, -1, 1, 1, 1, 1, 1, -1, 1, -1, 1, 1, -1, 1, -1, -1, -1, 1, 1, 1, 1, -1, 1, -1, 1, 1, 1, 1, 1, 1, -1, 1, 1, 1, 1, -1, -1, -1, 1, -1, 1, -1, 1, 1, -1, -1, 1, 1, 1, 1, -1, -1, 1, 1, 1, 1, -1, -1, -1, 1, 1, 1, 1, -1, -1, -1, 1, 1, 1, 1, -1, -1, -1, 1, -1, 1, -1, 1, 1, -1, -1, -1, 1, 1, 1, -1, -1, -1, 1, 1, 1, -1, -1, -1, 1, 1, -1, 1, 1, -1, -1, 1, 1, 1, -1, 1, 1, -1, -1, 1, 1, -1, -1, 1, -1, 1, 1, 1, -1, 1, 1, -1, -1, 1, 1, 1, 1, 1, -1, -1, 1, -1, -1, 1, 1, 1, -1, -1, 1, 1, 1, 1, -1, -1, 1, -1, 1, 1, 1, -1, -1, -1, 1, -1, 1, -1, 1, -1, -1, -1, 1, -1, 1, 1, -1, -1, 1, 1, -1, 1, 1, -1, 1, 1, -1, 1, -1, 1, -1, -1, 1, -1, -1, 1, 1, -1, 1, 1, 1, -1, 1, -1, -1, 1, 1, 1, -1, 1, -1, -1, 1, 1, -1, 1, 1, 1, 1, 1, 1, -1, 1, 1, 1, -1, 1, -1, -1, -1, -1, -1, 1, 1, -1, -1, 1, 1, 1, -1, 1, -1, -1, 1, 1, -1, 1, 1, 1, -1, 1, -1, 1, -1, 1, 1, 1, -1, -1, 1, -1, 1, 1, 1, 1, 1, -1, 1, 1, 1, 1, -1, 1, 1, 1, 1, 1, 1, -1, 1, 1, 1, 1, 1, 1, 1, 1, 1, 1, 1, 1, 1, -1, 1, 1, 1, 1, 1, 1, 1, 1, 1, 1, 1, 1, 1, 1, 1, 1, 1, 1, 1, 1, 1, 1, 1, -1, 1, 1, 1, -1, 1, 1, 1, 1, 1, 1, 1, 1, 1, -1, 1, 1, 1, -1, 1, 1, 1, 1, 1, 1, -1, 1, 1, 1, 1, -1, 1, 1, -1, 1, 1, 1, 1, 1, -1, 1, 1, -1, 1, 1, 1, -1, 1, 1, -1, 1, 1, 1, -1, -1, 1, 1, -1, 1, 1, -1, -1, 1, 1, -1, 1, -1, 1, -1, 1, 1, -1, 1, 1, -1, 1, 1, -1, 1, 1, -1, -1, 1, -1, 1, -1, -1, -1, -1, -1, 1, 1, 1, 1, -1, -1, -1, 1, 1, 1, -1, -1, 1, 1, 1, 1, 1, -1, -1, 1, -1, 1, 1, -1, 1, -1, 1, -1, 1, 1, 1, -1, -1, -1, 1, 1, 1, 1, -1, 1, -1, 1, -1, 1, 1, 1, -1, 1, -1, 1, 1, 1, -1, 1, -1, 1, -1, 1, 1, 1, -1, -1, 1, -1, -1, 1, -1, -1, -1, 1, -1, 1, 1, 1, -1, -1, 1, -1, 1, -1, -1, 1, -1, 1, -1, 1, 1, 1, -1, 1, 1, -1, 1, 1, -1, 1, -1, -1, 1, 1, -1, 1, -1, 1, -1, 1, 1, 1, 1, 1, -1, -1, 1, 1, 1, -1, -1, 1, -1, -1, 1, 1, 1, 1, -1, -1, 1, -1, 1, -1, 1, 1, -1, 1, -1, -1, 1, 1, -1, -1, 1, 1, 1, -1, 1, 1, -1, -1, -1, 1, 1, -1, 1, 1, 1, 1, 1, -1, -1, -1, 1, 1, -1, 1, 1, -1, 1, -1, 1, 1, -1, 1, 1, -1, -1, 1, -1, -1, 1, -1, -1, -1, 1, 1, -1, 1, -1, 1, -1, 1, -1, -1, 1, -1, -1, -1, -1, -1, 1, -1, -1, -1, -1, -1, -1, 1, -1, 1, -1, -1, -1, -1, 1, -1, 1, -1, 1, -1, -1, 1, -1, -1, -1, 1, -1, -1, 1, -1, -1, -1, -1, -1, 1, -1, 1, -1, -1, -1, -1, -1, -1, -1, 1, -1, -1, -1, 1, -1, -1, 1, -1, -1, -1, 1, -1, -1, 1, -1, 1, -1, -1, -1, -1, -1, -1, 1, -1, 1, -1, -1, -1, 1, 1, -1, -1, -1, -1, -1, 1, -1, -1, -1, -1, -1, 1, -1, -1, -1, 1, -1, -1, -1, 1, -1, -1, 1, -1, -1, -1, 1, 1, 1, 1, 1, 1, -1, 1, 1, 1, -1, -1, -1, -1, -1, -1, -1, -1, 1, -1, -1, -1, -1, 1, -1, -1, 1, -1, -1, 1, -1, 1, -1, -1, -1, 1, -1, -1, -1, -1, -1, -1, -1, 1, -1, 1, 1, -1, -1, -1, 1, -1, 1, 1, -1, 1, 1, -1, -1, 1, -1, -1, -1, -1, -1, 1, 1, -1, -1, 1, 1, -1, -1, 1, -1, 1, 1, 1, -1, -1, -1, 1, -1, 1, -1, -1, -1, -1, 1, -1, 1, 1, -1, 1, -1, -1, -1, 1, -1, 1, -1, -1, 1, -1, 1, -1, 1, -1, -1, -1, -1, 1, -1, -1, 1, -1, -1, -1, 1, 1, 1, -1, 1, -1, 1, 1, 1, 1, -1, 1, -1, 1, 1, 1, 1, -1, 1, -1, 1, 1, -1, 1, -1, 1, -1, 1, 1, -1, 1, -1, 1, -1, 1, 1, 1, 1, -1, 1, -1, -1, 1, -1, 1, -1, 1, -1, 1, 1, -1, 1, -1, 1, 1, -1, 1, 1, 1, -1, 1, -1, -1, 1, 1, -1, 1, -1, 1, -1, 1, 1, 1, 1, -1, 1, -1, 1, 1, -1, 1, 1, -1, 1, -1, 1, 1, -1, 1, -1, 1, -1, 1, -1, 1, -1, -1, 1, 1, -1, 1, -1, -1, 1, -1, -1, 1, -1, 1, -1, -1, 1, 1, -1, 1, -1, 1, -1, 1, 1, 1, 1, 1, -1, -1, 1, 1, 1, 1, -1, 1, -1, 1, -1, 1, 1, 1, -1, -1, 1, -1, -1, 1, 1, -1, -1, 1, 1, -1, 1, 1, -1, 1, -1, -1, 1, 1, 1, -1, -1, 1, -1, 1, 1, -1, 1, -1, 1, -1, -1, 1, -1, 1, 1, -1, 1, 1, 1, -1, 1, -1, 1, -1, 1, 1, 1, -1, -1, 1, 1, -1, 1, 1, -1, -1, 1, -1, 1, 1, 1, -1, -1, -1, -1, 1, 1, 1, -1, -1, -1, 1, -1, 1, 1, 1, -1, 1, 1, 1, 1, 1, 1, -1, -1, 1, -1, 1, 1, 1, -1, -1, 1, 1, -1, 1, -1, 1, -1, -1, 1, 1, 1, 1, -1, -1, 1, 1, 1, -1, 1, -1, -1, 1, -1, -1, 1, 1, -1, -1, -1, 1, -1, 1, -1, 1, -1, 1, -1, -1, 1, 1, -1, -1, 1, -1, -1, 1, 1, -1, -1, 1, 1, -1, 1, 1, -1, -1, 1, -1, -1, 1, 1, -1, 1, -1, 1, 1, -1, -1, 1, -1, -1, -1, -1, 1, 1, -1, -1, -1, -1, -1, -1, 1, 1, -1, -1, 1, 1, 1, 1, -1, -1, -1, 1, 1, -1, 1, -1, 1, -1, 1
BQP_DATA, 1173, 5176, -2483.000000, -2939.000000, -7070.000000, -7526.000000, 2048.000987, 3320, 1495
